c leafs=60, vars=15, seed=1, tickle=None
p cnf 755 2041                                                                
e 16 17 18 19 20 21 22 23 24 25 26 27 28 29 30 31 32 33 34 35 36 37 38 39 40 41 42 43 44 45 46 47 48 49 50 51 52 53 54 55 56 57 58 59 60 61 62 63 64 65 66 67 68 69 70 71 72 73 74 75  0
a 1 2 3 4 5 6 7 8 9 10 11 12 13 14 15  0
e 76 77 78 79 80 81 82 83 84 85 86 87 88 89 90 91 92 93 94 95 96 97 98 99 100 101 102 103 104 105 106 107 108 109 110 111 112 113 114 115 116 117 118 119 120 121 122 123 124 125 126 127 128 129 130 131 132 133 134 135 136 137 138 139 140 141 142 143 144 145 146 147 148 149 150 151 152 153 154 155 156 157 158 159 160 161 162 163 164 165 166 167 168 169 170 171 172 173 174 175 176 177 178 179 180 181 182 183 184 185 186 187 188 189 190 191 192 193 194 195 196 197 198 199 200 201 202 203 204 205 206 207 208 209 210 211 212 213 214 215 216 217 218 219 220 221 222 223 224 225 226 227 228 229 230 231 232 233 234 235 236 237 238 239 240 241 242 243 244 245 246 247 248 249 250 251 252 253 254 255 256 257 258 259 260 261 262 263 264 265 266 267 268 269 270 271 272 273 274 275 276 277 278 279 280 281 282 283 284 285 286 287 288 289 290 291 292 293 294 295 296 297 298 299 300 301 302 303 304 305 306 307 308 309 310 311 312 313 314 315 316 317 318 319 320 321 322 323 324 325 326 327 328 329 330 331 332 333 334 335 336 337 338 339 340 341 342 343 344 345 346 347 348 349 350 351 352 353 354 355 356 357 358 359 360 361 362 363 364 365 366 367 368 369 370 371 372 373 374 375 376 377 378 379 380 381 382 383 384 385 386 387 388 389 390 391 392 393 394 395 396 397 398 399 400 401 402 403 404 405 406 407 408 409 410 411 412 413 414 415 416 417 418 419 420 421 422 423 424 425 426 427 428 429 430 431 432 433 434 435 436 437 438 439 440 441 442 443 444 445 446 447 448 449 450 451 452 453 454 455 456 457 458 459 460 461 462 463 464 465 466 467 468 469 470 471 472 473 474 475 476 477 478 479 480 481 482 483 484 485 486 487 488 489 490 491 492 493 494 495 496 497 498 499 500 501 502 503 504 505 506 507 508 509 510 511 512 513 514 515 516 517 518 519 520 521 522 523 524 525 526 527 528 529 530 531 532 533 534 535 536 537 538 539 540 541 542 543 544 545 546 547 548 549 550 551 552 553 554 555 556 557 558 559 560 561 562 563 564 565 566 567 568 569 570 571 572 573 574 575 576 577 578 579 580 581 582 583 584 585 586 587 588 589 590 591 592 593 594 595 596 597 598 599 600 601 602 603 604 605 606 607 608 609 610 611 612 613 614 615 616 617 618 619 620 621 622 623 624 625 626 627 628 629 630 631 632 633 634 635 636 637 638 639 640 641 642 643 644 645 646 647 648 649 650 651 652 653 654 655 656 657 658 659 660 661 662 663 664 665 666 667 668 669 670 671 672 673 674 675 676 677 678 679 680 681 682 683 684 685 686 687 688 689 690 691 692 693 694 695 696 697 698 699 700 701 702 703 704 705 706 707 708 709 710 711 712 713 714 715 716 717 718 719 720 721 722 723 724 725 726 727 728 729 730 731 732 733 734 735 736 737 738 739 740 741 742 743 744 745 746 747 748 749 750 751 752 753 754 755  0
755  0
-76 -52 -8  0
76 52  0
76 8  0
-77 -11 52  0
77 11  0
77 -52  0
-78 4 53  0
78 -4  0
78 -53  0
-79 -53 -6  0
79 53  0
79 6  0
-80 1 51  0
80 -1  0
80 -51  0
-81 -51 2  0
81 51  0
81 -2  0
-82 -50 -2  0
82 50  0
82 2  0
-83 7 50  0
83 -7  0
83 -50  0
84 48 -5  0
-84 -48  0
-84 5  0
85 -14 -48  0
-85 14  0
-85 48  0
86 -6 -49  0
-86 6  0
-86 49  0
87 49 -8  0
-87 -49  0
-87 8  0
-88 -46 -2  0
88 46  0
88 2  0
-89 13 46  0
89 -13  0
89 -46  0
-90 1 47  0
90 -1  0
90 -47  0
-91 -47 9  0
91 47  0
91 -9  0
-92 -7 56  0
92 7  0
92 -56  0
-93 -56 14  0
93 56  0
93 -14  0
-94 10 57  0
94 -10  0
94 -57  0
-95 -57 13  0
95 57  0
95 -13  0
96 11 -55  0
-96 -11  0
-96 55  0
97 55 3  0
-97 -55  0
-97 -3  0
98 54 -8  0
-98 -54  0
-98 8  0
99 -6 -54  0
-99 6  0
-99 54  0
-100 -60 4  0
100 60  0
100 -4  0
-101 7 60  0
101 -7  0
101 -60  0
102 58 3  0
-102 -58  0
-102 -3  0
103 11 -58  0
-103 -11  0
-103 58  0
104 8 -59  0
-104 -8  0
-104 59  0
105 59 -2  0
-105 -59  0
-105 2  0
106 8 -62  0
-106 -8  0
-106 62  0
107 62 10  0
-107 -62  0
-107 -10  0
108 5 -61  0
-108 -5  0
-108 61  0
109 61 -1  0
-109 -61  0
-109 1  0
-110 -9 63  0
110 9  0
110 -63  0
-111 -63 -2  0
111 63  0
111 2  0
112 65 5  0
-112 -65  0
-112 -5  0
113 -13 -65  0
-113 13  0
-113 65  0
114 10 -64  0
-114 -10  0
-114 64  0
115 64 3  0
-115 -64  0
-115 -3  0
-116 14 66  0
116 -14  0
116 -66  0
-117 -66 -7  0
117 66  0
117 7  0
-118 -67 -4  0
118 67  0
118 4  0
-119 -8 67  0
119 8  0
119 -67  0
-120 -73 -14  0
120 73  0
120 14  0
-121 -13 73  0
121 13  0
121 -73  0
-122 -10 72  0
122 10  0
122 -72  0
-123 -72 -3  0
123 72  0
123 3  0
124 74 -9  0
-124 -74  0
-124 9  0
125 -7 -74  0
-125 7  0
-125 74  0
126 -6 -75  0
-126 6  0
-126 75  0
127 75 12  0
-127 -75  0
-127 -12  0
-128 -71 2  0
128 71  0
128 -2  0
-129 1 71  0
129 -1  0
129 -71  0
-130 3 70  0
130 -3  0
130 -70  0
-131 -70 -12  0
131 70  0
131 12  0
-132 -8 69  0
132 8  0
132 -69  0
-133 -69 13  0
133 69  0
133 -13  0
-134 -68 -15  0
134 68  0
134 15  0
-135 3 68  0
135 -3  0
135 -68  0
136 13 -19  0
-136 -13  0
-136 19  0
137 19 -5  0
-137 -19  0
-137 5  0
138 18 10  0
-138 -18  0
-138 -10  0
139 -6 -18  0
-139 6  0
-139 18  0
-140 14 16  0
140 -14  0
140 -16  0
-141 -16 5  0
141 16  0
141 -5  0
-142 1 17  0
142 -1  0
142 -17  0
-143 -17 8  0
143 17  0
143 -8  0
-144 -11 20  0
144 11  0
144 -20  0
-145 -20 5  0
145 20  0
145 -5  0
-146 -8 21  0
146 8  0
146 -21  0
-147 -21 6  0
147 21  0
147 -6  0
-148 -22 -4  0
148 22  0
148 4  0
-149 15 22  0
149 -15  0
149 -22  0
150 27 4  0
-150 -27  0
-150 -4  0
151 3 -27  0
-151 -3  0
-151 27  0
152 28 -9  0
-152 -28  0
-152 9  0
153 -1 -28  0
-153 1  0
-153 28  0
154 10 -29  0
-154 -10  0
-154 29  0
155 29 -15  0
-155 -29  0
-155 15  0
156 30 12  0
-156 -30  0
-156 -12  0
157 -15 -30  0
-157 15  0
-157 30  0
-158 -14 24  0
158 14  0
158 -24  0
-159 -24 -3  0
159 24  0
159 3  0
-160 -5 23  0
160 5  0
160 -23  0
-161 -23 -11  0
161 23  0
161 11  0
162 25 6  0
-162 -25  0
-162 -6  0
163 9 -25  0
-163 -9  0
-163 25  0
164 -2 -26  0
-164 2  0
-164 26  0
165 26 15  0
-165 -26  0
-165 -15  0
-166 -37 6  0
166 37  0
166 -6  0
-167 -12 37  0
167 12  0
167 -37  0
168 35 15  0
-168 -35  0
-168 -15  0
169 -8 -35  0
-169 8  0
-169 35  0
170 13 -36  0
-170 -13  0
-170 36  0
171 36 7  0
-171 -36  0
-171 -7  0
172 5 -32  0
-172 -5  0
-172 32  0
173 32 -10  0
-173 -32  0
-173 10  0
174 8 -31  0
-174 -8  0
-174 31  0
175 31 14  0
-175 -31  0
-175 -14  0
176 33 -2  0
-176 -33  0
-176 2  0
177 -4 -33  0
-177 4  0
-177 33  0
178 34 -10  0
-178 -34  0
-178 10  0
179 9 -34  0
-179 -9  0
-179 34  0
180 41 -5  0
-180 -41  0
-180 5  0
181 13 -41  0
-181 -13  0
-181 41  0
182 14 -40  0
-182 -14  0
-182 40  0
183 40 -15  0
-183 -40  0
-183 15  0
-184 -39 7  0
184 39  0
184 -7  0
-185 -2 39  0
185 2  0
185 -39  0
-186 -6 38  0
186 6  0
186 -38  0
-187 -38 1  0
187 38  0
187 -1  0
188 7 -45  0
-188 -7  0
-188 45  0
189 45 14  0
-189 -45  0
-189 -14  0
190 -14 -44  0
-190 14  0
-190 44  0
191 44 5  0
-191 -44  0
-191 -5  0
-192 -42 -2  0
192 42  0
192 2  0
-193 -10 42  0
193 10  0
193 -42  0
-194 -4 43  0
194 4  0
194 -43  0
-195 -43 3  0
195 43  0
195 -3  0
-196 -15 6  0
196 15  0
196 -6  0
-197 -6 15  0
197 6  0
197 -15  0
-198 -8 4  0
198 8  0
198 -4  0
-199 -4 8  0
199 4  0
199 -8  0
-200 -14 1  0
200 14  0
200 -1  0
-201 -1 14  0
201 1  0
201 -14  0
-202 -13 10  0
202 13  0
202 -10  0
-203 -10 13  0
203 10  0
203 -13  0
-204 10 13  0
204 -10  0
204 -13  0
-205 -13 -10  0
205 13  0
205 10  0
-206 6 11  0
206 -6  0
206 -11  0
-207 -11 -6  0
207 11  0
207 6  0
-208 -7 -2  0
208 7  0
208 2  0
-209 -7 2  0
209 7  0
209 -2  0
210 -4 -11  0
-210 4  0
-210 11  0
211 11 4  0
-211 -11  0
-211 -4  0
212 14 -8  0
-212 -14  0
-212 8  0
213 8 -14  0
-213 -8  0
-213 14  0
214 7 -4  0
-214 -7  0
-214 4  0
215 4 -7  0
-215 -4  0
-215 7  0
216 8 5  0
-216 -8  0
-216 -5  0
217 -5 -8  0
-217 5  0
-217 8  0
-218 3 14  0
218 -3  0
218 -14  0
-219 -14 -3  0
219 14  0
219 3  0
-220 -12 -2  0
220 12  0
220 2  0
-221 2 12  0
221 -2  0
221 -12  0
222 3 -14  0
-222 -3  0
-222 14  0
223 14 -3  0
-223 -14  0
-223 3  0
-224 -7 -4  0
224 7  0
224 4  0
-225 4 7  0
225 -4  0
225 -7  0
-226 -9 6  0
226 9  0
226 -6  0
-227 -6 9  0
227 6  0
227 -9  0
-228 6 9  0
228 -6  0
228 -9  0
-229 -9 -6  0
229 9  0
229 6  0
230 3 -10  0
-230 -3  0
-230 10  0
231 10 -3  0
-231 -10  0
-231 3  0
-232 -1 2  0
232 1  0
232 -2  0
-233 -2 1  0
233 2  0
233 -1  0
-234 -10 -3  0
234 10  0
234 3  0
-235 3 10  0
235 -3  0
235 -10  0
236 9 2  0
-236 -9  0
-236 -2  0
237 -2 -9  0
-237 2  0
-237 9  0
-238 -12 15  0
238 12  0
238 -15  0
-239 -15 -12  0
239 15  0
239 12  0
-240 -9 2  0
240 9  0
240 -2  0
-241 -2 9  0
241 2  0
241 -9  0
242 -76 -77  0
-242 76  0
-242 77  0
243 -78 -79  0
-243 78  0
-243 79  0
244 -80 -81  0
-244 80  0
-244 81  0
245 -82 -83  0
-245 82  0
-245 83  0
-246 84 85  0
246 -84  0
246 -85  0
-247 86 87  0
247 -86  0
247 -87  0
248 -88 -89  0
-248 88  0
-248 89  0
249 -90 -91  0
-249 90  0
-249 91  0
250 -92 -93  0
-250 92  0
-250 93  0
251 -94 -95  0
-251 94  0
-251 95  0
-252 96 97  0
252 -96  0
252 -97  0
-253 98 99  0
253 -98  0
253 -99  0
254 -100 -101  0
-254 100  0
-254 101  0
-255 102 103  0
255 -102  0
255 -103  0
-256 104 105  0
256 -104  0
256 -105  0
-257 106 107  0
257 -106  0
257 -107  0
-258 108 109  0
258 -108  0
258 -109  0
259 -110 -111  0
-259 110  0
-259 111  0
-260 112 113  0
260 -112  0
260 -113  0
-261 114 115  0
261 -114  0
261 -115  0
262 -116 -117  0
-262 116  0
-262 117  0
263 -118 -119  0
-263 118  0
-263 119  0
264 -120 -121  0
-264 120  0
-264 121  0
265 -122 -123  0
-265 122  0
-265 123  0
-266 124 125  0
266 -124  0
266 -125  0
-267 126 127  0
267 -126  0
267 -127  0
268 -128 -129  0
-268 128  0
-268 129  0
269 -130 -131  0
-269 130  0
-269 131  0
270 -132 -133  0
-270 132  0
-270 133  0
271 -134 -135  0
-271 134  0
-271 135  0
-272 136 137  0
272 -136  0
272 -137  0
-273 138 139  0
273 -138  0
273 -139  0
274 -140 -141  0
-274 140  0
-274 141  0
275 -142 -143  0
-275 142  0
-275 143  0
276 -144 -145  0
-276 144  0
-276 145  0
277 -146 -147  0
-277 146  0
-277 147  0
278 -148 -149  0
-278 148  0
-278 149  0
-279 150 151  0
279 -150  0
279 -151  0
-280 152 153  0
280 -152  0
280 -153  0
-281 154 155  0
281 -154  0
281 -155  0
-282 156 157  0
282 -156  0
282 -157  0
283 -158 -159  0
-283 158  0
-283 159  0
284 -160 -161  0
-284 160  0
-284 161  0
-285 162 163  0
285 -162  0
285 -163  0
-286 164 165  0
286 -164  0
286 -165  0
287 -166 -167  0
-287 166  0
-287 167  0
-288 168 169  0
288 -168  0
288 -169  0
-289 170 171  0
289 -170  0
289 -171  0
-290 172 173  0
290 -172  0
290 -173  0
-291 174 175  0
291 -174  0
291 -175  0
-292 176 177  0
292 -176  0
292 -177  0
-293 178 179  0
293 -178  0
293 -179  0
-294 180 181  0
294 -180  0
294 -181  0
-295 182 183  0
295 -182  0
295 -183  0
296 -184 -185  0
-296 184  0
-296 185  0
297 -186 -187  0
-297 186  0
-297 187  0
-298 188 189  0
298 -188  0
298 -189  0
-299 190 191  0
299 -190  0
299 -191  0
300 -192 -193  0
-300 192  0
-300 193  0
301 -194 -195  0
-301 194  0
-301 195  0
302 -196 -197  0
-302 196  0
-302 197  0
303 -198 -199  0
-303 198  0
-303 199  0
304 -200 -201  0
-304 200  0
-304 201  0
305 -202 -203  0
-305 202  0
-305 203  0
306 -204 -205  0
-306 204  0
-306 205  0
307 -206 -207  0
-307 206  0
-307 207  0
-308 -3 208  0
308 3  0
308 -208  0
-309 3 209  0
309 -3  0
309 -209  0
-310 210 211  0
310 -210  0
310 -211  0
-311 212 213  0
311 -212  0
311 -213  0
-312 214 215  0
312 -214  0
312 -215  0
-313 216 217  0
313 -216  0
313 -217  0
314 -218 -219  0
-314 218  0
-314 219  0
315 -220 -221  0
-315 220  0
-315 221  0
-316 222 223  0
316 -222  0
316 -223  0
317 -224 -225  0
-317 224  0
-317 225  0
318 -226 -227  0
-318 226  0
-318 227  0
319 -228 -229  0
-319 228  0
-319 229  0
-320 230 231  0
320 -230  0
320 -231  0
321 -232 -233  0
-321 232  0
-321 233  0
322 -234 -235  0
-322 234  0
-322 235  0
-323 236 237  0
323 -236  0
323 -237  0
324 13 -238  0
-324 -13  0
-324 238  0
325 -13 -239  0
-325 13  0
-325 239  0
326 -240 -241  0
-326 240  0
-326 241  0
-327 242 243  0
327 -242  0
327 -243  0
-328 -243 -242  0
328 243  0
328 242  0
-329 244 245  0
329 -244  0
329 -245  0
-330 -245 -244  0
330 245  0
330 244  0
-331 246 247  0
331 -246  0
331 -247  0
-332 -247 -246  0
332 247  0
332 246  0
-333 248 249  0
333 -248  0
333 -249  0
-334 -249 -248  0
334 249  0
334 248  0
-335 250 251  0
335 -250  0
335 -251  0
-336 -250 -251  0
336 250  0
336 251  0
-337 252 253  0
337 -252  0
337 -253  0
-338 -252 -253  0
338 252  0
338 253  0
-339 255 256  0
339 -255  0
339 -256  0
-340 -255 -256  0
340 255  0
340 256  0
-341 257 258  0
341 -257  0
341 -258  0
-342 -257 -258  0
342 257  0
342 258  0
-343 260 261  0
343 -260  0
343 -261  0
-344 -260 -261  0
344 260  0
344 261  0
-345 262 263  0
345 -262  0
345 -263  0
-346 -262 -263  0
346 262  0
346 263  0
347 -264 -265  0
-347 264  0
-347 265  0
348 265 264  0
-348 -265  0
-348 -264  0
349 -266 -267  0
-349 266  0
-349 267  0
350 267 266  0
-350 -267  0
-350 -266  0
351 -268 -269  0
-351 268  0
-351 269  0
352 269 268  0
-352 -269  0
-352 -268  0
353 -270 -271  0
-353 270  0
-353 271  0
354 270 271  0
-354 -270  0
-354 -271  0
-355 272 273  0
355 -272  0
355 -273  0
-356 -272 -273  0
356 272  0
356 273  0
-357 274 275  0
357 -274  0
357 -275  0
-358 -275 -274  0
358 275  0
358 274  0
-359 277 278  0
359 -277  0
359 -278  0
-360 -277 -278  0
360 277  0
360 278  0
361 -279 -280  0
-361 279  0
-361 280  0
362 280 279  0
-362 -280  0
-362 -279  0
363 -281 -282  0
-363 281  0
-363 282  0
364 282 281  0
-364 -282  0
-364 -281  0
365 -283 -284  0
-365 283  0
-365 284  0
366 284 283  0
-366 -284  0
-366 -283  0
367 -285 -286  0
-367 285  0
-367 286  0
368 285 286  0
-368 -285  0
-368 -286  0
-369 288 289  0
369 -288  0
369 -289  0
-370 -288 -289  0
370 288  0
370 289  0
-371 290 291  0
371 -290  0
371 -291  0
-372 -291 -290  0
372 291  0
372 290  0
-373 292 293  0
373 -292  0
373 -293  0
-374 -292 -293  0
374 292  0
374 293  0
-375 294 295  0
375 -294  0
375 -295  0
-376 -294 -295  0
376 294  0
376 295  0
-377 296 297  0
377 -296  0
377 -297  0
-378 -297 -296  0
378 297  0
378 296  0
-379 298 299  0
379 -298  0
379 -299  0
-380 -298 -299  0
380 298  0
380 299  0
-381 300 301  0
381 -300  0
381 -301  0
-382 -300 -301  0
382 300  0
382 301  0
383 -3 -302  0
-383 3  0
-383 302  0
384 3 -302  0
-384 -3  0
-384 302  0
385 5 -303  0
-385 -5  0
-385 303  0
-386 304 305  0
386 -304  0
386 -305  0
387 -14 -306  0
-387 14  0
-387 306  0
388 14 -306  0
-388 -14  0
-388 306  0
389 13 -307  0
-389 -13  0
-389 307  0
390 -13 -307  0
-390 13  0
-390 307  0
391 -308 -309  0
-391 308  0
-391 309  0
392 306 -312  0
-392 -306  0
-392 312  0
393 -2 -313  0
-393 2  0
-393 313  0
-394 13 315  0
394 -13  0
394 -315  0
-395 -13 315  0
395 13  0
395 -315  0
396 -305 -317  0
-396 305  0
-396 317  0
397 -3 -318  0
-397 3  0
-397 318  0
398 3 -318  0
-398 -3  0
-398 318  0
-399 -3 319  0
399 3  0
399 -319  0
-400 3 319  0
400 -3  0
400 -319  0
401 -14 -321  0
-401 14  0
-401 321  0
402 14 -321  0
-402 -14  0
-402 321  0
-403 324 325  0
403 -324  0
403 -325  0
404 -327 -328  0
-404 327  0
-404 328  0
405 -329 -330  0
-405 329  0
-405 330  0
406 -331 -332  0
-406 331  0
-406 332  0
407 -333 -334  0
-407 333  0
-407 334  0
408 -335 -336  0
-408 335  0
-408 336  0
409 -337 -338  0
-409 337  0
-409 338  0
410 -339 -340  0
-410 339  0
-410 340  0
411 -341 -342  0
-411 341  0
-411 342  0
412 -343 -344  0
-412 343  0
-412 344  0
413 -345 -346  0
-413 345  0
-413 346  0
-414 347 348  0
414 -347  0
414 -348  0
-415 349 350  0
415 -349  0
415 -350  0
-416 351 352  0
416 -351  0
416 -352  0
-417 353 354  0
417 -353  0
417 -354  0
418 -355 -356  0
-418 355  0
-418 356  0
419 -357 -358  0
-419 357  0
-419 358  0
420 -359 -360  0
-420 359  0
-420 360  0
-421 361 362  0
421 -361  0
421 -362  0
-422 363 364  0
422 -363  0
422 -364  0
-423 365 366  0
423 -365  0
423 -366  0
-424 367 368  0
424 -367  0
424 -368  0
425 -369 -370  0
-425 369  0
-425 370  0
426 -371 -372  0
-426 371  0
-426 372  0
427 -373 -374  0
-427 373  0
-427 374  0
428 -375 -376  0
-428 375  0
-428 376  0
429 -377 -378  0
-429 377  0
-429 378  0
430 -379 -380  0
-430 379  0
-430 380  0
431 -381 -382  0
-431 381  0
-431 382  0
-432 -11 383  0
432 11  0
432 -383  0
-433 11 384  0
433 -11  0
433 -384  0
-434 385 386  0
434 -385  0
434 -386  0
-435 1 387  0
435 -1  0
435 -387  0
-436 -1 388  0
436 1  0
436 -388  0
-437 14 389  0
437 -14  0
437 -389  0
-438 -14 390  0
438 14  0
438 -390  0
-439 392 393  0
439 -392  0
439 -393  0
-440 -393 -392  0
440 393  0
440 392  0
-441 15 394  0
441 -15  0
441 -394  0
-442 -15 395  0
442 15  0
442 -395  0
-443 -393 396  0
443 393  0
443 -396  0
-444 393 -396  0
444 -393  0
444 396  0
-445 -14 397  0
445 14  0
445 -397  0
-446 14 398  0
446 -14  0
446 -398  0
-447 -14 399  0
447 14  0
447 -399  0
-448 14 400  0
448 -14  0
448 -400  0
-449 13 401  0
449 -13  0
449 -401  0
-450 -13 402  0
450 13  0
450 -402  0
451 -404 -405  0
-451 404  0
-451 405  0
-452 406 407  0
452 -406  0
452 -407  0
-453 408 409  0
453 -408  0
453 -409  0
454 -254 -410  0
-454 254  0
-454 410  0
-455 411 259  0
455 -411  0
455 -259  0
456 -412 -413  0
-456 412  0
-456 413  0
457 -414 -415  0
-457 414  0
-457 415  0
-458 416 417  0
458 -416  0
458 -417  0
459 -418 -419  0
-459 418  0
-459 419  0
-460 276 420  0
460 -276  0
460 -420  0
-461 421 422  0
461 -421  0
461 -422  0
462 -423 -424  0
-462 423  0
-462 424  0
-463 287 425  0
463 -287  0
463 -425  0
464 -426 -427  0
-464 426  0
-464 427  0
465 -428 -429  0
-465 428  0
-465 429  0
-466 430 431  0
466 -430  0
466 -431  0
467 -432 -433  0
-467 432  0
-467 433  0
468 -435 -436  0
-468 435  0
-468 436  0
469 -437 -438  0
-469 437  0
-469 438  0
470 -439 -440  0
-470 439  0
-470 440  0
471 -441 -442  0
-471 441  0
-471 442  0
472 -443 -444  0
-472 443  0
-472 444  0
473 -445 -446  0
-473 445  0
-473 446  0
474 -447 -448  0
-474 447  0
-474 448  0
475 -449 -450  0
-475 449  0
-475 450  0
476 -451 -452  0
-476 451  0
-476 452  0
477 452 451  0
-477 -452  0
-477 -451  0
478 -453 -454  0
-478 453  0
-478 454  0
479 453 454  0
-479 -453  0
-479 -454  0
480 -455 -456  0
-480 455  0
-480 456  0
481 455 456  0
-481 -455  0
-481 -456  0
482 -457 -458  0
-482 457  0
-482 458  0
483 458 457  0
-483 -458  0
-483 -457  0
-484 459 460  0
484 -459  0
484 -460  0
-485 -459 -460  0
485 459  0
485 460  0
-486 461 462  0
486 -461  0
486 -462  0
-487 -461 -462  0
487 461  0
487 462  0
-488 463 464  0
488 -463  0
488 -464  0
-489 -463 -464  0
489 463  0
489 464  0
-490 465 466  0
490 -465  0
490 -466  0
-491 -465 -466  0
491 465  0
491 466  0
-492 468 -385  0
492 -468  0
492 385  0
493 -469 -391  0
-493 469  0
-493 391  0
494 469 391  0
-494 -469  0
-494 -391  0
-495 6 470  0
495 -6  0
495 -470  0
-496 -6 470  0
496 6  0
496 -470  0
-497 470 -316  0
497 -470  0
497 316  0
498 -12 -473  0
-498 12  0
-498 473  0
499 12 473  0
-499 -12  0
-499 -473  0
-500 13 474  0
500 -13  0
500 -474  0
-501 -13 474  0
501 13  0
501 -474  0
-502 -13 473  0
502 13  0
502 -473  0
-503 12 474  0
503 -12  0
503 -474  0
-504 -12 -474  0
504 12  0
504 474  0
-505 13 473  0
505 -13  0
505 -473  0
506 -6 -472  0
-506 6  0
-506 472  0
507 6 -472  0
-507 -6  0
-507 472  0
-508 472 -316  0
508 -472  0
508 316  0
-509 476 477  0
509 -476  0
509 -477  0
-510 478 479  0
510 -478  0
510 -479  0
-511 480 481  0
511 -480  0
511 -481  0
-512 482 483  0
512 -482  0
512 -483  0
513 -484 -485  0
-513 484  0
-513 485  0
514 -486 -487  0
-514 486  0
-514 487  0
515 -488 -489  0
-515 488  0
-515 489  0
516 -490 -491  0
-516 490  0
-516 491  0
517 -434 -492  0
-517 434  0
-517 492  0
-518 493 494  0
518 -493  0
518 -494  0
-519 9 495  0
519 -9  0
519 -495  0
-520 -9 496  0
520 9  0
520 -496  0
-521 9 496  0
521 -9  0
521 -496  0
-522 -9 495  0
522 9  0
522 -495  0
-523 498 499  0
523 -498  0
523 -499  0
524 -503 -504  0
-524 503  0
-524 504  0
-525 -9 506  0
525 9  0
525 -506  0
-526 9 507  0
526 -9  0
526 -507  0
-527 -9 507  0
527 9  0
527 -507  0
-528 9 506  0
528 -9  0
528 -506  0
529 -509 -510  0
-529 509  0
-529 510  0
-530 511 512  0
530 -511  0
530 -512  0
531 -513 -514  0
-531 513  0
-531 514  0
-532 515 516  0
532 -515  0
532 -516  0
533 4 -517  0
-533 -4  0
-533 517  0
534 -4 -517  0
-534 4  0
-534 517  0
-535 -12 517  0
535 12  0
535 -517  0
-536 12 517  0
536 -12  0
536 -517  0
537 -1 -518  0
-537 1  0
-537 518  0
538 1 -518  0
-538 -1  0
-538 518  0
539 4 -518  0
-539 -4  0
-539 518  0
540 -4 -518  0
-540 4  0
-540 518  0
541 -519 -520  0
-541 519  0
-541 520  0
542 -521 -522  0
-542 521  0
-542 522  0
-543 -2 523  0
543 2  0
543 -523  0
-544 2 -523  0
544 -2  0
544 523  0
-545 2 524  0
545 -2  0
545 -524  0
-546 -2 -524  0
546 2  0
546 524  0
547 -525 -526  0
-547 525  0
-547 526  0
548 -527 -528  0
-548 527  0
-548 528  0
549 -529 -530  0
-549 529  0
-549 530  0
550 529 530  0
-550 -529  0
-550 -530  0
551 -531 -532  0
-551 531  0
-551 532  0
552 532 531  0
-552 -532  0
-552 -531  0
-553 -1 533  0
553 1  0
553 -533  0
-554 1 534  0
554 -1  0
554 -534  0
-555 1 533  0
555 -1  0
555 -533  0
-556 -1 534  0
556 1  0
556 -534  0
557 7 -537  0
-557 -7  0
-557 537  0
558 -7 -538  0
-558 7  0
-558 538  0
559 -7 -537  0
-559 7  0
-559 537  0
560 7 -538  0
-560 -7  0
-560 538  0
-561 541 314  0
561 -541  0
561 -314  0
-562 542 316  0
562 -542  0
562 -316  0
563 -543 -544  0
-563 543  0
-563 544  0
564 -545 -546  0
-564 545  0
-564 546  0
565 -547 316  0
-565 547  0
-565 -316  0
-566 548 316  0
566 -548  0
566 -316  0
-567 549 550  0
567 -549  0
567 -550  0
-568 551 552  0
568 -551  0
568 -552  0
569 -553 -554  0
-569 553  0
-569 554  0
570 -555 -556  0
-570 555  0
-570 556  0
-571 557 558  0
571 -557  0
571 -558  0
-572 559 560  0
572 -559  0
572 -560  0
-573 561 471  0
573 -561  0
573 -471  0
574 -562 -497  0
-574 562  0
-574 497  0
-575 -13 563  0
575 13  0
575 -563  0
-576 13 563  0
576 -13  0
576 -563  0
-577 13 564  0
577 -13  0
577 -564  0
-578 -13 564  0
578 13  0
578 -564  0
-579 565 471  0
579 -565  0
579 -471  0
580 -566 -508  0
-580 566  0
-580 508  0
-581 567 568  0
581 -567  0
581 -568  0
-582 12 569  0
582 -12  0
582 -569  0
-583 -12 569  0
583 12  0
583 -569  0
584 -12 -570  0
-584 12  0
-584 570  0
585 12 -570  0
-585 -12  0
-585 570  0
586 -571 -310  0
-586 571  0
-586 310  0
587 -4 -572  0
-587 4  0
-587 572  0
588 4 -572  0
-588 -4  0
-588 572  0
-589 -471 574  0
589 471  0
589 -574  0
590 -575 -500  0
-590 575  0
-590 500  0
591 -576 -501  0
-591 576  0
-591 501  0
592 -502 -577  0
-592 502  0
-592 577  0
593 -505 -578  0
-593 505  0
-593 578  0
-594 -471 580  0
594 471  0
594 -580  0
595 -582 -535  0
-595 582  0
-595 535  0
596 -583 -536  0
-596 583  0
-596 536  0
-597 10 584  0
597 -10  0
597 -584  0
-598 -10 585  0
598 10  0
598 -585  0
599 -586 -311  0
-599 586  0
-599 311  0
-600 539 587  0
600 -539  0
600 -587  0
-601 540 588  0
601 -540  0
601 -588  0
602 9 -586  0
-602 -9  0
-602 586  0
603 -9 -586  0
-603 9  0
-603 586  0
604 -573 -589  0
-604 573  0
-604 589  0
-605 -15 590  0
605 15  0
605 -590  0
-606 15 591  0
606 -15  0
606 -591  0
-607 15 592  0
607 -15  0
607 -592  0
-608 -15 593  0
608 15  0
608 -593  0
609 -579 -594  0
-609 579  0
-609 594  0
-610 -10 595  0
610 10  0
610 -595  0
-611 10 596  0
611 -10  0
611 -596  0
612 -597 -598  0
-612 597  0
-612 598  0
613 -11 -600  0
-613 11  0
-613 600  0
614 11 -601  0
-614 -11  0
-614 601  0
615 -605 -606  0
-615 605  0
-615 606  0
616 -607 -608  0
-616 607  0
-616 608  0
617 -610 -611  0
-617 610  0
-617 611  0
-618 612 -467  0
618 -612  0
618 467  0
-619 613 614  0
619 -613  0
619 -614  0
620 -472 -615  0
-620 472  0
-620 615  0
-621 470 616  0
621 -470  0
621 -616  0
-622 467 617  0
622 -467  0
622 -617  0
623 -9 -619  0
-623 9  0
-623 619  0
624 9 -619  0
-624 -9  0
-624 619  0
625 -622 -618  0
-625 622  0
-625 618  0
-626 623 602  0
626 -623  0
626 -602  0
-627 624 603  0
627 -624  0
627 -603  0
628 2 -626  0
-628 -2  0
-628 626  0
629 -2 -627  0
-629 2  0
-629 627  0
-630 628 629  0
630 -628  0
630 -629  0
631 -630 311  0
-631 630  0
-631 -311  0
-632 599 631  0
632 -599  0
632 -631  0
-633 632 604  0
633 -632  0
633 -604  0
-634 -632 620  0
634 632  0
634 -620  0
-635 -632 621  0
635 632  0
635 -621  0
-636 632 609  0
636 -632  0
636 -609  0
637 -633 -634  0
-637 633  0
-637 634  0
638 -635 -636  0
-638 635  0
-638 636  0
-639 637 320  0
639 -637  0
639 -320  0
640 -5 -637  0
-640 5  0
-640 637  0
641 5 -637  0
-641 -5  0
-641 637  0
-642 14 637  0
642 -14  0
642 -637  0
-643 -14 637  0
643 14  0
643 -637  0
-644 323 637  0
644 -323  0
644 -637  0
-645 5 638  0
645 -5  0
645 -638  0
-646 -5 638  0
646 5  0
646 -638  0
-647 638 320  0
647 -638  0
647 -320  0
-648 14 638  0
648 -14  0
648 -638  0
-649 -14 638  0
649 14  0
649 -638  0
-650 323 638  0
650 -323  0
650 -638  0
-651 7 640  0
651 -7  0
651 -640  0
-652 -7 641  0
652 7  0
652 -641  0
-653 7 641  0
653 -7  0
653 -641  0
-654 -7 640  0
654 7  0
654 -640  0
-655 -7 645  0
655 7  0
655 -645  0
-656 7 646  0
656 -7  0
656 -646  0
-657 7 645  0
657 -7  0
657 -645  0
-658 -7 646  0
658 7  0
658 -646  0
659 -651 -652  0
-659 651  0
-659 652  0
660 -653 -654  0
-660 653  0
-660 654  0
661 -655 -656  0
-661 655  0
-661 656  0
662 -657 -658  0
-662 657  0
-662 658  0
-663 659 -320  0
663 -659  0
663 320  0
664 -660 -322  0
-664 660  0
-664 322  0
-665 661 -320  0
665 -661  0
665 320  0
-666 662 -320  0
666 -662  0
666 320  0
667 -639 -663  0
-667 639  0
-667 663  0
-668 -475 664  0
668 475  0
668 -664  0
-669 475 664  0
669 -475  0
669 -664  0
670 -665 -647  0
-670 665  0
-670 647  0
-671 666 475  0
671 -666  0
671 -475  0
-672 666 -475  0
672 -666  0
672 475  0
-673 667 475  0
673 -667  0
673 -475  0
-674 667 -475  0
674 -667  0
674 475  0
-675 -475 670  0
675 475  0
675 -670  0
-676 475 670  0
676 -475  0
676 -670  0
677 -673 -668  0
-677 673  0
-677 668  0
678 -674 -669  0
-678 674  0
-678 669  0
679 -675 -671  0
-679 675  0
-679 671  0
680 -676 -672  0
-680 676  0
-680 672  0
-681 677 323  0
681 -677  0
681 -323  0
-682 -14 677  0
682 14  0
682 -677  0
-683 14 677  0
683 -14  0
683 -677  0
684 -14 -678  0
-684 14  0
-684 678  0
685 14 -678  0
-685 -14  0
-685 678  0
-686 323 678  0
686 -323  0
686 -678  0
-687 323 679  0
687 -323  0
687 -679  0
-688 14 679  0
688 -14  0
688 -679  0
-689 -14 679  0
689 14  0
689 -679  0
-690 323 680  0
690 -323  0
690 -680  0
-691 -14 680  0
691 14  0
691 -680  0
-692 14 680  0
692 -14  0
692 -680  0
693 -682 -642  0
-693 682  0
-693 642  0
694 -683 -643  0
-694 683  0
-694 643  0
-695 -5 684  0
695 5  0
695 -684  0
-696 5 685  0
696 -5  0
696 -685  0
-697 5 684  0
697 -5  0
697 -684  0
-698 -5 685  0
698 5  0
698 -685  0
-699 5 688  0
699 -5  0
699 -688  0
-700 -5 689  0
700 5  0
700 -689  0
-701 -5 688  0
701 5  0
701 -688  0
-702 5 689  0
702 -5  0
702 -689  0
703 -648 -691  0
-703 648  0
-703 691  0
704 -649 -692  0
-704 649  0
-704 692  0
-705 -5 693  0
705 5  0
705 -693  0
-706 5 694  0
706 -5  0
706 -694  0
-707 -5 694  0
707 5  0
707 -694  0
-708 5 693  0
708 -5  0
708 -693  0
709 -695 -696  0
-709 695  0
-709 696  0
710 -697 -698  0
-710 697  0
-710 698  0
711 -699 -700  0
-711 699  0
-711 700  0
712 -701 -702  0
-712 701  0
-712 702  0
-713 -5 703  0
713 5  0
713 -703  0
-714 5 704  0
714 -5  0
714 -704  0
-715 5 703  0
715 -5  0
715 -703  0
-716 -5 704  0
716 5  0
716 -704  0
717 -705 -706  0
-717 705  0
-717 706  0
718 -707 -708  0
-718 707  0
-718 708  0
-719 709 -323  0
719 -709  0
719 323  0
720 -710 -326  0
-720 710  0
-720 326  0
-721 711 -323  0
721 -711  0
721 323  0
-722 -323 712  0
722 323  0
722 -712  0
723 -713 -714  0
-723 713  0
-723 714  0
724 -715 -716  0
-724 715  0
-724 716  0
-725 -323 717  0
725 323  0
725 -717  0
-726 -323 718  0
726 323  0
726 -718  0
727 -719 -686  0
-727 719  0
-727 686  0
-728 -403 720  0
728 403  0
728 -720  0
729 -687 -721  0
-729 687  0
-729 721  0
-730 -403 722  0
730 403  0
730 -722  0
-731 723 -323  0
731 -723  0
731 323  0
-732 -323 724  0
732 323  0
732 -724  0
733 -681 -725  0
-733 681  0
-733 725  0
734 -726 -644  0
-734 726  0
-734 644  0
-735 727 403  0
735 -727  0
735 -403  0
-736 729 403  0
736 -729  0
736 -403  0
737 -690 -731  0
-737 690  0
-737 731  0
738 -732 -650  0
-738 732  0
-738 650  0
-739 733 403  0
739 -733  0
739 -403  0
-740 -403 734  0
740 403  0
740 -734  0
741 -735 -728  0
-741 735  0
-741 728  0
742 -736 -730  0
-742 736  0
-742 730  0
-743 737 403  0
743 -737  0
743 -403  0
-744 -403 738  0
744 403  0
744 -738  0
745 -739 -740  0
-745 739  0
-745 740  0
-746 741 -625  0
746 -741  0
746 625  0
-747 742 -625  0
747 -742  0
747 625  0
748 -743 -744  0
-748 743  0
-748 744  0
-749 625 745  0
749 -625  0
749 -745  0
-750 625 748  0
750 -625  0
750 -748  0
751 -749 -746  0
-751 749  0
-751 746  0
752 -747 -750  0
-752 747  0
-752 750  0
-753 581 751  0
753 -581  0
753 -751  0
-754 752 -581  0
754 -752  0
754 581  0
755 -753 -754  0
-755 753  0
-755 754  0
